2	25
791	172	629	796	359	860	681	638	44	537	326	449	944	740	509	976	733	756	780	196	257	174	153	582	295	
105	545	932	697	832	730	938	859	191	334	228	582	791	405	156	61	611	535	106	245	171	794	57	405	294	
1451	1451	
